50

100 22 300
99 11 298
98 32 294
97 26 297
95 30 290
94 33 283
92 2 291
92 35 278
91 5 291
82 6 287
80 31 292
77 34 293
76 11 252
75 24 242
73 28 246
73 25 275
73 1 251
71 15 269
68 24 220
65 13 240
65 7 273
63 13 211
63 9 259
63 15 218
60 13 251
59 20 212
53 1 195
45 22 188
44 18 257
40 15 198
31 11 135
25 4 205
24 9 156
24 3 284
24 3 137
23 10 222
22 1 268
21 4 121
21 2 235
15 8 295
14 1 143
14 5 265
10 4 53
10 1 225
7 3 55
7 3 72
6 2 172
3 2 63
2 1 149
2 1 295
